Results/Experiment 1 Results/New Benchmark/RES_20/output_p1_0.75_p2_0.00_n_20_01.txt
solutions: 0 nodes: 0  modelTime: 119  solveTime: 9  totalTime: 130  modelSize: 7358  readTime: 2 matchingSize: 0
